
Gurobi 9.5.1 (linux64) logging started Mon Jun 13 01:38:54 2022

Set parameter LogFile to value "../results/logs/log_web-baidu-baike.e_3_10_2022_06_12_23_13.log"
Gurobi Optimizer version 9.5.1 build v9.5.1rc2 (linux64)
Thread count: 8 physical cores, 8 logical processors, using up to 8 threads
Optimize a model with 65003 rows, 4280396 columns and 1176195 nonzeros
Model fingerprint: 0x929b2e9d
Variable types: 0 continuous, 4280396 integer (4280396 binary)
Coefficient statistics:
  Matrix range     [1e+00, 3e+00]
  Objective range  [1e+00, 1e+00]
  Bounds range     [1e+00, 1e+00]
  RHS range        [1e+00, 1e+01]
Found heuristic solution: objective 1277646.0000
Presolve removed 51077 rows and 4261597 columns
Presolve time: 3.19s
Presolved: 13926 rows, 18799 columns, 53185 nonzeros
Found heuristic solution: objective 1277666.0000
Variable types: 0 continuous, 18799 integer (17430 binary)

Root relaxation: objective 1.278146e+06, 7583 iterations, 0.05 seconds (0.05 work units)

    Nodes    |    Current Node    |     Objective Bounds      |     Work
 Expl Unexpl |  Obj  Depth IntInf | Incumbent    BestBd   Gap | It/Node Time

     0     0 1278146.27    0  542 1277666.00 1278146.27  0.04%     -    4s
H    0     0                    1277673.0000 1278146.27  0.04%     -    4s
H    0     0                    1277684.0000 1278146.27  0.04%     -    4s
H    0     0                    1277693.0000 1278146.27  0.04%     -    4s
H    0     0                    1277695.0000 1277754.18  0.00%     -    4s
     0     0 1277754.18    0  123 1277695.00 1277754.18  0.00%     -    4s
H    0     0                    1277699.0000 1277754.18  0.00%     -    4s
     0     0 1277736.29    0  118 1277699.00 1277736.29  0.00%     -    4s
     0     0 1277736.00    0  110 1277699.00 1277736.00  0.00%     -    5s
     0     0 1277736.00    0  108 1277699.00 1277736.00  0.00%     -    5s
     0     0 1277736.00    0  108 1277699.00 1277736.00  0.00%     -    5s
     0     0 1277736.00    0  108 1277699.00 1277736.00  0.00%     -    5s
     0     0 1277736.00    0  108 1277699.00 1277736.00  0.00%     -    5s
     0     0 1277736.00    0  108 1277699.00 1277736.00  0.00%     -    6s
H    0     0                    1277707.0000 1277736.00  0.00%     -    6s
H    0     2                    1277708.0000 1277734.00  0.00%     -    6s
     0     2 1277734.00    0  108 1277708.00 1277734.00  0.00%     -    6s
H   36    36                    1277709.0000 1277731.82  0.00%  44.9    7s
   378   576 1277723.33   50   72 1277709.00 1277730.00  0.00%  12.8   10s
* 1520  1271             113    1277710.0000 1277727.33  0.00%   8.2   12s
  1685  1255 1277713.97   58  105 1277710.00 1277726.58  0.00%   7.9   15s
H 1708  1208                    1277711.0000 1277714.00  0.00%  13.4   17s
H 1708  1147                    1277713.0000 1277714.00  0.00%  13.4   17s

Cutting planes:
  Gomory: 264
  Cover: 45
  Implied bound: 3
  MIR: 186
  StrongCG: 3
  Flow cover: 61
  GUB cover: 405
  Zero half: 109
  RLT: 16

Explored 1709 nodes (35648 simplex iterations) in 17.75 seconds (25.56 work units)
Thread count was 8 (of 8 available processors)

Solution count 10: 1.27771e+06 1.27771e+06 1.27771e+06 ... 1.27768e+06

Optimal solution found (tolerance 0.00e+00)
Best objective 1.277713000000e+06, best bound 1.277713000000e+06, gap 0.0000%
